
Gurobi 9.1.2 (win64) logging started Mon Sep 27 20:01:57 2021

Changed value of parameter LogFile to ../results/logs/log_samuel_kroger_2021_09_27_15_02_42.csv_21_250.log
   Prev:   Default: 
Changed value of parameter method to 3
   Prev: -1  Min: -1  Max: 5  Default: -1
Changed value of parameter lazyConstraints to 1
   Prev: 0  Min: 0  Max: 1  Default: 0
Gurobi Optimizer version 9.1.2 build v9.1.2rc0 (win64)
Thread count: 6 physical cores, 12 logical processors, using up to 12 threads
Optimize a model with 82989 rows, 299400 columns and 404326 nonzeros
Model fingerprint: 0x84b3c085
Variable types: 149700 continuous, 149700 integer (149700 binary)
Coefficient statistics:
  Matrix range     [1e+00, 2e+01]
  Objective range  [1e+00, 1e+00]
  Bounds range     [1e+00, 1e+00]
  RHS range        [1e+00, 3e+02]
Found heuristic solution: objective 78978.000000
Presolve removed 78975 rows and 226670 columns
Presolve time: 0.65s
Presolved: 4014 rows, 72730 columns, 85714 nonzeros
Variable types: 70725 continuous, 2005 integer (2005 binary)

Concurrent LP optimizer: primal simplex, dual simplex, and barrier
Showing barrier log only...

Root barrier log...

Ordering time: 0.00s

Barrier statistics:
 AA' NZ     : 9.313e+03
 Factor NZ  : 1.970e+04 (roughly 30 MBytes of memory)
 Factor Ops : 1.689e+05 (less than 1 second per iteration)
 Threads    : 1

                  Objective                Residual
Iter       Primal          Dual         Primal    Dual     Compl     Time
   0   8.80264923e+05  8.99990461e+04  2.76e+07 9.03e-01  2.14e+02     1s
   1   4.35454128e+05  8.43654041e+04  8.56e+06 5.16e-02  6.69e+01     1s

Barrier performed 1 iterations in 0.89 seconds
Barrier solve interrupted - model solved by another algorithm


Solved with dual simplex

Root relaxation: objective 7.970334e+04, 2396 iterations, 0.10 seconds

    Nodes    |    Current Node    |     Objective Bounds      |     Work
 Expl Unexpl |  Obj  Depth IntInf | Incumbent    BestBd   Gap | It/Node Time

     0     0 79703.3373    0  317 78978.0000 79703.3373  0.92%     -    1s
H    0     0                    79504.000000 79703.3373  0.25%     -    1s
H    0     0                    79530.000000 79703.3373  0.22%     -    1s
     0     0 79617.9783    0  127 79530.0000 79617.9783  0.11%     -    7s
H    0     0                    79568.000000 79617.9783  0.06%     -    7s
     0     0 79617.2751    0  118 79568.0000 79617.2751  0.06%     -   13s
     0     0 79617.2751    0  118 79568.0000 79617.2751  0.06%     -   19s
     0     0 79606.5541    0   72 79568.0000 79606.5541  0.05%     -   26s
H    0     0                    79588.000000 79606.5541  0.02%     -   26s
     0     0 79606.1950    0   67 79588.0000 79606.1950  0.02%     -   32s
     0     0 79606.0076    0   67 79588.0000 79606.0076  0.02%     -   38s
     0     0 79601.9049    0   40 79588.0000 79601.9049  0.02%     -   44s
H    0     0                    79594.000000 79601.9049  0.01%     -   44s

Cutting planes:
  MIR: 514
  RLT: 76
  Relax-and-lift: 11
  Lazy constraints: 7

Explored 1 nodes (3058 simplex iterations) in 44.50 seconds
Thread count was 12 (of 12 available processors)

Solution count 6: 79594 79588 79568 ... 78978

Optimal solution found (tolerance 1.00e-04)
Best objective 7.959400000000e+04, best bound 7.960100000000e+04, gap 0.0088%

User-callback calls 616, time in user-callback 42.21 sec
